39 39
8 5
13 1
3 9
2 34
12 16
6 21
11 26
13 36
3 8
17 31
4 39
19 4
10 17
7 29
1 6
16 19
8 18
4 35
11 33
9 25
15 38
7 37
17 10
1 15
9 27
14 14
14 24
19 3
10 22
12 13
16 23
18 20
18 11
5 32
15 28
5 12
2 2
1 30
6 7
